x_1
x_2
x_3
x_4
x_5
x_6
x_7
x_8
x_9
x_10
x_11
x_12
x_13
x_14
x_15
x_16
x_17
x_18
x_19
x_20
x_5 x_3
x_5 x_4
x_6 x_1
x_7 x_1
x_8 x_6
x_9 x_1
x_10 x_4
x_11 x_8
x_12 x_6
x_13 x_3
x_14 x_7
x_15 x_3
x_16 x_1
x_16 x_2
x_16 x_4
x_17 x_2
x_18 x_5
x_19 x_5
x_20 x_19
